* #variable= 545 #constraint= 193
min: +8 x1 +25 x2 +85 x3 +44 x4 +85 x5 +29 x6 +51 x7 +81 x8 +45 x9 +8 x10 +33 x11 +79 x12 +36 x13 +79 x14 +29 x15 +46 x16 +75 x17 +38 x18 +25 x19 +33 x20 +103 x21 +68 x22 +104 x23 +41 x24 +70 x25 +100 x26 +68 x27 +85 x28 +79 x29 +103 x30 +47 x31 +7 x32 +63 x33 +34 x34 +4 x35 +44 x36 +44 x37 +36 x38 +68 x39 +47 x40 +44 x41 +37 x42 +20 x43 +42 x44 +2 x45 +85 x46 +79 x47 +104 x48 +7 x49 +44 x50 +65 x51 +34 x52 +6 x53 +42 x54 +29 x55 +29 x56 +41 x57 +63 x58 +37 x59 +65 x60 +31 x61 +59 x62 +36 x63 +51 x64 +46 x65 +70 x66 +34 x67 +20 x68 +34 x69 +31 x70 +30 x71 +17 x72 +81 x73 +75 x74 +100 x75 +4 x76 +42 x77 +6 x78 +59 x79 +30 x80 +39 x81 +45 x82 +38 x83 +68 x84 +44 x85 +2 x86 +42 x87 +36 x88 +17 x89 +39 x90 ;

+8 x1 +25 x2 +85 x3 +44 x4 +85 x5 +29 x6 +51 x7 +81 x8 +45 x9 +8 x10 +33 x11 +79 x12 +36 x13 +79 x14 +29 x15 +46 x16 +75 x17 +38 x18 +25 x19 +33 x20 +103 x21 +68 x22 +104 x23 +41 x24 +70 x25 +100 x26 +68 x27 +85 x28 +79 x29 +103 x30 +47 x31 +7 x32 +63 x33 +34 x34 +4 x35 +44 x36 +44 x37 +36 x38 +68 x39 +47 x40 +44 x41 +37 x42 +20 x43 +42 x44 +2 x45 +85 x46 +79 x47 +104 x48 +7 x49 +44 x50 +65 x51 +34 x52 +6 x53 +42 x54 +29 x55 +29 x56 +41 x57 +63 x58 +37 x59 +65 x60 +31 x61 +59 x62 +36 x63 +51 x64 +46 x65 +70 x66 +34 x67 +20 x68 +34 x69 +31 x70 +30 x71 +17 x72 +81 x73 +75 x74 +100 x75 +4 x76 +42 x77 +6 x78 +59 x79 +30 x80 +39 x81 +45 x82 +38 x83 +68 x84 +44 x85 +2 x86 +42 x87 +36 x88 +17 x89 +39 x90 >= 0 ;

+1 x1 +1 x2 +1 x3 +1 x4 +1 x5 +1 x6 +1 x7 +1 x8 +1 x9 = 1 ;
+1 x10 +1 x11 +1 x12 +1 x13 +1 x14 +1 x15 +1 x16 +1 x17 +1 x18 = 1 ;
+1 x19 +1 x20 +1 x21 +1 x22 +1 x23 +1 x24 +1 x25 +1 x26 +1 x27 = 1 ;
+1 x28 +1 x29 +1 x30 +1 x31 +1 x32 +1 x33 +1 x34 +1 x35 +1 x36 = 1 ;
+1 x37 +1 x38 +1 x39 +1 x40 +1 x41 +1 x42 +1 x43 +1 x44 +1 x45 = 1 ;
+1 x46 +1 x47 +1 x48 +1 x49 +1 x50 +1 x51 +1 x52 +1 x53 +1 x54 = 1 ;
+1 x55 +1 x56 +1 x57 +1 x58 +1 x59 +1 x60 +1 x61 +1 x62 +1 x63 = 1 ;
+1 x64 +1 x65 +1 x66 +1 x67 +1 x68 +1 x69 +1 x70 +1 x71 +1 x72 = 1 ;
+1 x73 +1 x74 +1 x75 +1 x76 +1 x77 +1 x78 +1 x79 +1 x80 +1 x81 = 1 ;
+1 x82 +1 x83 +1 x84 +1 x85 +1 x86 +1 x87 +1 x88 +1 x89 +1 x90 = 1 ;

+1 x10 +1 x19 +1 x28 +1 x37 +1 x46 +1 x55 +1 x64 +1 x73 +1 x82 = 1 ;
+1 x1 +1 x20 +1 x29 +1 x38 +1 x47 +1 x56 +1 x65 +1 x74 +1 x83 = 1 ;
+1 x2 +1 x11 +1 x30 +1 x39 +1 x48 +1 x57 +1 x66 +1 x75 +1 x84 = 1 ;
+1 x3 +1 x12 +1 x21 +1 x40 +1 x49 +1 x58 +1 x67 +1 x76 +1 x85 = 1 ;
+1 x4 +1 x13 +1 x22 +1 x31 +1 x50 +1 x59 +1 x68 +1 x77 +1 x86 = 1 ;
+1 x5 +1 x14 +1 x23 +1 x32 +1 x41 +1 x60 +1 x69 +1 x78 +1 x87 = 1 ;
+1 x6 +1 x15 +1 x24 +1 x33 +1 x42 +1 x51 +1 x70 +1 x79 +1 x88 = 1 ;
+1 x7 +1 x16 +1 x25 +1 x34 +1 x43 +1 x52 +1 x61 +1 x80 +1 x89 = 1 ;
+1 x8 +1 x17 +1 x26 +1 x35 +1 x44 +1 x53 +1 x62 +1 x71 +1 x90 = 1 ;
+1 x9 +1 x18 +1 x27 +1 x36 +1 x45 +1 x54 +1 x63 +1 x72 +1 x81 = 1 ;

+1 x91 +2 x92 +4 x93 +8 x94 +16 x95  >= 0 ;
+1 x96 +2 x97 +4 x98 +8 x99 +16 x100  >= 0 ;
+1 x101 +2 x102 +4 x103 +8 x104 +16 x105  >= 0 ;
+1 x106 +2 x107 +4 x108 +8 x109 +16 x110  >= 0 ;
+1 x111 +2 x112 +4 x113 +8 x114 +16 x115  >= 0 ;
+1 x116 +2 x117 +4 x118 +8 x119 +16 x120  >= 0 ;
+1 x121 +2 x122 +4 x123 +8 x124 +16 x125  >= 0 ;
+1 x126 +2 x127 +4 x128 +8 x129 +16 x130  >= 0 ;
+1 x131 +2 x132 +4 x133 +8 x134 +16 x135  >= 0 ;
+1 x136 +2 x137 +4 x138 +8 x139 +16 x140  >= 0 ;


+1 x141 +2 x142 +4 x143 +8 x144 +16 x145  >= 0 ;
+1 x91 +2 x92 +4 x93 +8 x94 +16 x95 -1 x96 -2 x97 -4 x98 -8 x99 -16 x100 +10 x1 +1 x141 +2 x142 +4 x143 +8 x144 +16 x145  = 9 ;

+1 x146 +2 x147 +4 x148 +8 x149 +16 x150  >= 0 ;
+1 x91 +2 x92 +4 x93 +8 x94 +16 x95 -1 x101 -2 x102 -4 x103 -8 x104 -16 x105 +10 x2 +1 x146 +2 x147 +4 x148 +8 x149 +16 x150  = 9 ;

+1 x151 +2 x152 +4 x153 +8 x154 +16 x155  >= 0 ;
+1 x91 +2 x92 +4 x93 +8 x94 +16 x95 -1 x106 -2 x107 -4 x108 -8 x109 -16 x110 +10 x3 +1 x151 +2 x152 +4 x153 +8 x154 +16 x155  = 9 ;

+1 x156 +2 x157 +4 x158 +8 x159 +16 x160  >= 0 ;
+1 x91 +2 x92 +4 x93 +8 x94 +16 x95 -1 x111 -2 x112 -4 x113 -8 x114 -16 x115 +10 x4 +1 x156 +2 x157 +4 x158 +8 x159 +16 x160  = 9 ;

+1 x161 +2 x162 +4 x163 +8 x164 +16 x165  >= 0 ;
+1 x91 +2 x92 +4 x93 +8 x94 +16 x95 -1 x116 -2 x117 -4 x118 -8 x119 -16 x120 +10 x5 +1 x161 +2 x162 +4 x163 +8 x164 +16 x165  = 9 ;

+1 x166 +2 x167 +4 x168 +8 x169 +16 x170  >= 0 ;
+1 x91 +2 x92 +4 x93 +8 x94 +16 x95 -1 x121 -2 x122 -4 x123 -8 x124 -16 x125 +10 x6 +1 x166 +2 x167 +4 x168 +8 x169 +16 x170  = 9 ;

+1 x171 +2 x172 +4 x173 +8 x174 +16 x175  >= 0 ;
+1 x91 +2 x92 +4 x93 +8 x94 +16 x95 -1 x126 -2 x127 -4 x128 -8 x129 -16 x130 +10 x7 +1 x171 +2 x172 +4 x173 +8 x174 +16 x175  = 9 ;

+1 x176 +2 x177 +4 x178 +8 x179 +16 x180  >= 0 ;
+1 x91 +2 x92 +4 x93 +8 x94 +16 x95 -1 x131 -2 x132 -4 x133 -8 x134 -16 x135 +10 x8 +1 x176 +2 x177 +4 x178 +8 x179 +16 x180  = 9 ;

+1 x181 +2 x182 +4 x183 +8 x184 +16 x185  >= 0 ;
+1 x91 +2 x92 +4 x93 +8 x94 +16 x95 -1 x136 -2 x137 -4 x138 -8 x139 -16 x140 +10 x9 +1 x181 +2 x182 +4 x183 +8 x184 +16 x185  = 9 ;

+1 x186 +2 x187 +4 x188 +8 x189 +16 x190  >= 0 ;
+1 x96 +2 x97 +4 x98 +8 x99 +16 x100 -1 x91 -2 x92 -4 x93 -8 x94 -16 x95 +10 x10 +1 x186 +2 x187 +4 x188 +8 x189 +16 x190  = 9 ;

+1 x191 +2 x192 +4 x193 +8 x194 +16 x195  >= 0 ;
+1 x96 +2 x97 +4 x98 +8 x99 +16 x100 -1 x101 -2 x102 -4 x103 -8 x104 -16 x105 +10 x11 +1 x191 +2 x192 +4 x193 +8 x194 +16 x195  = 9 ;

+1 x196 +2 x197 +4 x198 +8 x199 +16 x200  >= 0 ;
+1 x96 +2 x97 +4 x98 +8 x99 +16 x100 -1 x106 -2 x107 -4 x108 -8 x109 -16 x110 +10 x12 +1 x196 +2 x197 +4 x198 +8 x199 +16 x200  = 9 ;

+1 x201 +2 x202 +4 x203 +8 x204 +16 x205  >= 0 ;
+1 x96 +2 x97 +4 x98 +8 x99 +16 x100 -1 x111 -2 x112 -4 x113 -8 x114 -16 x115 +10 x13 +1 x201 +2 x202 +4 x203 +8 x204 +16 x205  = 9 ;

+1 x206 +2 x207 +4 x208 +8 x209 +16 x210  >= 0 ;
+1 x96 +2 x97 +4 x98 +8 x99 +16 x100 -1 x116 -2 x117 -4 x118 -8 x119 -16 x120 +10 x14 +1 x206 +2 x207 +4 x208 +8 x209 +16 x210  = 9 ;

+1 x211 +2 x212 +4 x213 +8 x214 +16 x215  >= 0 ;
+1 x96 +2 x97 +4 x98 +8 x99 +16 x100 -1 x121 -2 x122 -4 x123 -8 x124 -16 x125 +10 x15 +1 x211 +2 x212 +4 x213 +8 x214 +16 x215  = 9 ;

+1 x216 +2 x217 +4 x218 +8 x219 +16 x220  >= 0 ;
+1 x96 +2 x97 +4 x98 +8 x99 +16 x100 -1 x126 -2 x127 -4 x128 -8 x129 -16 x130 +10 x16 +1 x216 +2 x217 +4 x218 +8 x219 +16 x220  = 9 ;

+1 x221 +2 x222 +4 x223 +8 x224 +16 x225  >= 0 ;
+1 x96 +2 x97 +4 x98 +8 x99 +16 x100 -1 x131 -2 x132 -4 x133 -8 x134 -16 x135 +10 x17 +1 x221 +2 x222 +4 x223 +8 x224 +16 x225  = 9 ;

+1 x226 +2 x227 +4 x228 +8 x229 +16 x230  >= 0 ;
+1 x96 +2 x97 +4 x98 +8 x99 +16 x100 -1 x136 -2 x137 -4 x138 -8 x139 -16 x140 +10 x18 +1 x226 +2 x227 +4 x228 +8 x229 +16 x230  = 9 ;

+1 x231 +2 x232 +4 x233 +8 x234 +16 x235  >= 0 ;
+1 x101 +2 x102 +4 x103 +8 x104 +16 x105 -1 x91 -2 x92 -4 x93 -8 x94 -16 x95 +10 x19 +1 x231 +2 x232 +4 x233 +8 x234 +16 x235  = 9 ;

+1 x236 +2 x237 +4 x238 +8 x239 +16 x240  >= 0 ;
+1 x101 +2 x102 +4 x103 +8 x104 +16 x105 -1 x96 -2 x97 -4 x98 -8 x99 -16 x100 +10 x20 +1 x236 +2 x237 +4 x238 +8 x239 +16 x240  = 9 ;

+1 x241 +2 x242 +4 x243 +8 x244 +16 x245  >= 0 ;
+1 x101 +2 x102 +4 x103 +8 x104 +16 x105 -1 x106 -2 x107 -4 x108 -8 x109 -16 x110 +10 x21 +1 x241 +2 x242 +4 x243 +8 x244 +16 x245  = 9 ;

+1 x246 +2 x247 +4 x248 +8 x249 +16 x250  >= 0 ;
+1 x101 +2 x102 +4 x103 +8 x104 +16 x105 -1 x111 -2 x112 -4 x113 -8 x114 -16 x115 +10 x22 +1 x246 +2 x247 +4 x248 +8 x249 +16 x250  = 9 ;

+1 x251 +2 x252 +4 x253 +8 x254 +16 x255  >= 0 ;
+1 x101 +2 x102 +4 x103 +8 x104 +16 x105 -1 x116 -2 x117 -4 x118 -8 x119 -16 x120 +10 x23 +1 x251 +2 x252 +4 x253 +8 x254 +16 x255  = 9 ;

+1 x256 +2 x257 +4 x258 +8 x259 +16 x260  >= 0 ;
+1 x101 +2 x102 +4 x103 +8 x104 +16 x105 -1 x121 -2 x122 -4 x123 -8 x124 -16 x125 +10 x24 +1 x256 +2 x257 +4 x258 +8 x259 +16 x260  = 9 ;

+1 x261 +2 x262 +4 x263 +8 x264 +16 x265  >= 0 ;
+1 x101 +2 x102 +4 x103 +8 x104 +16 x105 -1 x126 -2 x127 -4 x128 -8 x129 -16 x130 +10 x25 +1 x261 +2 x262 +4 x263 +8 x264 +16 x265  = 9 ;

+1 x266 +2 x267 +4 x268 +8 x269 +16 x270  >= 0 ;
+1 x101 +2 x102 +4 x103 +8 x104 +16 x105 -1 x131 -2 x132 -4 x133 -8 x134 -16 x135 +10 x26 +1 x266 +2 x267 +4 x268 +8 x269 +16 x270  = 9 ;

+1 x271 +2 x272 +4 x273 +8 x274 +16 x275  >= 0 ;
+1 x101 +2 x102 +4 x103 +8 x104 +16 x105 -1 x136 -2 x137 -4 x138 -8 x139 -16 x140 +10 x27 +1 x271 +2 x272 +4 x273 +8 x274 +16 x275  = 9 ;

+1 x276 +2 x277 +4 x278 +8 x279 +16 x280  >= 0 ;
+1 x106 +2 x107 +4 x108 +8 x109 +16 x110 -1 x91 -2 x92 -4 x93 -8 x94 -16 x95 +10 x28 +1 x276 +2 x277 +4 x278 +8 x279 +16 x280  = 9 ;

+1 x281 +2 x282 +4 x283 +8 x284 +16 x285  >= 0 ;
+1 x106 +2 x107 +4 x108 +8 x109 +16 x110 -1 x96 -2 x97 -4 x98 -8 x99 -16 x100 +10 x29 +1 x281 +2 x282 +4 x283 +8 x284 +16 x285  = 9 ;

+1 x286 +2 x287 +4 x288 +8 x289 +16 x290  >= 0 ;
+1 x106 +2 x107 +4 x108 +8 x109 +16 x110 -1 x101 -2 x102 -4 x103 -8 x104 -16 x105 +10 x30 +1 x286 +2 x287 +4 x288 +8 x289 +16 x290  = 9 ;

+1 x291 +2 x292 +4 x293 +8 x294 +16 x295  >= 0 ;
+1 x106 +2 x107 +4 x108 +8 x109 +16 x110 -1 x111 -2 x112 -4 x113 -8 x114 -16 x115 +10 x31 +1 x291 +2 x292 +4 x293 +8 x294 +16 x295  = 9 ;

+1 x296 +2 x297 +4 x298 +8 x299 +16 x300  >= 0 ;
+1 x106 +2 x107 +4 x108 +8 x109 +16 x110 -1 x116 -2 x117 -4 x118 -8 x119 -16 x120 +10 x32 +1 x296 +2 x297 +4 x298 +8 x299 +16 x300  = 9 ;

+1 x301 +2 x302 +4 x303 +8 x304 +16 x305  >= 0 ;
+1 x106 +2 x107 +4 x108 +8 x109 +16 x110 -1 x121 -2 x122 -4 x123 -8 x124 -16 x125 +10 x33 +1 x301 +2 x302 +4 x303 +8 x304 +16 x305  = 9 ;

+1 x306 +2 x307 +4 x308 +8 x309 +16 x310  >= 0 ;
+1 x106 +2 x107 +4 x108 +8 x109 +16 x110 -1 x126 -2 x127 -4 x128 -8 x129 -16 x130 +10 x34 +1 x306 +2 x307 +4 x308 +8 x309 +16 x310  = 9 ;

+1 x311 +2 x312 +4 x313 +8 x314 +16 x315  >= 0 ;
+1 x106 +2 x107 +4 x108 +8 x109 +16 x110 -1 x131 -2 x132 -4 x133 -8 x134 -16 x135 +10 x35 +1 x311 +2 x312 +4 x313 +8 x314 +16 x315  = 9 ;

+1 x316 +2 x317 +4 x318 +8 x319 +16 x320  >= 0 ;
+1 x106 +2 x107 +4 x108 +8 x109 +16 x110 -1 x136 -2 x137 -4 x138 -8 x139 -16 x140 +10 x36 +1 x316 +2 x317 +4 x318 +8 x319 +16 x320  = 9 ;

+1 x321 +2 x322 +4 x323 +8 x324 +16 x325  >= 0 ;
+1 x111 +2 x112 +4 x113 +8 x114 +16 x115 -1 x91 -2 x92 -4 x93 -8 x94 -16 x95 +10 x37 +1 x321 +2 x322 +4 x323 +8 x324 +16 x325  = 9 ;

+1 x326 +2 x327 +4 x328 +8 x329 +16 x330  >= 0 ;
+1 x111 +2 x112 +4 x113 +8 x114 +16 x115 -1 x96 -2 x97 -4 x98 -8 x99 -16 x100 +10 x38 +1 x326 +2 x327 +4 x328 +8 x329 +16 x330  = 9 ;

+1 x331 +2 x332 +4 x333 +8 x334 +16 x335  >= 0 ;
+1 x111 +2 x112 +4 x113 +8 x114 +16 x115 -1 x101 -2 x102 -4 x103 -8 x104 -16 x105 +10 x39 +1 x331 +2 x332 +4 x333 +8 x334 +16 x335  = 9 ;

+1 x336 +2 x337 +4 x338 +8 x339 +16 x340  >= 0 ;
+1 x111 +2 x112 +4 x113 +8 x114 +16 x115 -1 x106 -2 x107 -4 x108 -8 x109 -16 x110 +10 x40 +1 x336 +2 x337 +4 x338 +8 x339 +16 x340  = 9 ;

+1 x341 +2 x342 +4 x343 +8 x344 +16 x345  >= 0 ;
+1 x111 +2 x112 +4 x113 +8 x114 +16 x115 -1 x116 -2 x117 -4 x118 -8 x119 -16 x120 +10 x41 +1 x341 +2 x342 +4 x343 +8 x344 +16 x345  = 9 ;

+1 x346 +2 x347 +4 x348 +8 x349 +16 x350  >= 0 ;
+1 x111 +2 x112 +4 x113 +8 x114 +16 x115 -1 x121 -2 x122 -4 x123 -8 x124 -16 x125 +10 x42 +1 x346 +2 x347 +4 x348 +8 x349 +16 x350  = 9 ;

+1 x351 +2 x352 +4 x353 +8 x354 +16 x355  >= 0 ;
+1 x111 +2 x112 +4 x113 +8 x114 +16 x115 -1 x126 -2 x127 -4 x128 -8 x129 -16 x130 +10 x43 +1 x351 +2 x352 +4 x353 +8 x354 +16 x355  = 9 ;

+1 x356 +2 x357 +4 x358 +8 x359 +16 x360  >= 0 ;
+1 x111 +2 x112 +4 x113 +8 x114 +16 x115 -1 x131 -2 x132 -4 x133 -8 x134 -16 x135 +10 x44 +1 x356 +2 x357 +4 x358 +8 x359 +16 x360  = 9 ;

+1 x361 +2 x362 +4 x363 +8 x364 +16 x365  >= 0 ;
+1 x111 +2 x112 +4 x113 +8 x114 +16 x115 -1 x136 -2 x137 -4 x138 -8 x139 -16 x140 +10 x45 +1 x361 +2 x362 +4 x363 +8 x364 +16 x365  = 9 ;

+1 x366 +2 x367 +4 x368 +8 x369 +16 x370  >= 0 ;
+1 x116 +2 x117 +4 x118 +8 x119 +16 x120 -1 x91 -2 x92 -4 x93 -8 x94 -16 x95 +10 x46 +1 x366 +2 x367 +4 x368 +8 x369 +16 x370  = 9 ;

+1 x371 +2 x372 +4 x373 +8 x374 +16 x375  >= 0 ;
+1 x116 +2 x117 +4 x118 +8 x119 +16 x120 -1 x96 -2 x97 -4 x98 -8 x99 -16 x100 +10 x47 +1 x371 +2 x372 +4 x373 +8 x374 +16 x375  = 9 ;

+1 x376 +2 x377 +4 x378 +8 x379 +16 x380  >= 0 ;
+1 x116 +2 x117 +4 x118 +8 x119 +16 x120 -1 x101 -2 x102 -4 x103 -8 x104 -16 x105 +10 x48 +1 x376 +2 x377 +4 x378 +8 x379 +16 x380  = 9 ;

+1 x381 +2 x382 +4 x383 +8 x384 +16 x385  >= 0 ;
+1 x116 +2 x117 +4 x118 +8 x119 +16 x120 -1 x106 -2 x107 -4 x108 -8 x109 -16 x110 +10 x49 +1 x381 +2 x382 +4 x383 +8 x384 +16 x385  = 9 ;

+1 x386 +2 x387 +4 x388 +8 x389 +16 x390  >= 0 ;
+1 x116 +2 x117 +4 x118 +8 x119 +16 x120 -1 x111 -2 x112 -4 x113 -8 x114 -16 x115 +10 x50 +1 x386 +2 x387 +4 x388 +8 x389 +16 x390  = 9 ;

+1 x391 +2 x392 +4 x393 +8 x394 +16 x395  >= 0 ;
+1 x116 +2 x117 +4 x118 +8 x119 +16 x120 -1 x121 -2 x122 -4 x123 -8 x124 -16 x125 +10 x51 +1 x391 +2 x392 +4 x393 +8 x394 +16 x395  = 9 ;

+1 x396 +2 x397 +4 x398 +8 x399 +16 x400  >= 0 ;
+1 x116 +2 x117 +4 x118 +8 x119 +16 x120 -1 x126 -2 x127 -4 x128 -8 x129 -16 x130 +10 x52 +1 x396 +2 x397 +4 x398 +8 x399 +16 x400  = 9 ;

+1 x401 +2 x402 +4 x403 +8 x404 +16 x405  >= 0 ;
+1 x116 +2 x117 +4 x118 +8 x119 +16 x120 -1 x131 -2 x132 -4 x133 -8 x134 -16 x135 +10 x53 +1 x401 +2 x402 +4 x403 +8 x404 +16 x405  = 9 ;

+1 x406 +2 x407 +4 x408 +8 x409 +16 x410  >= 0 ;
+1 x116 +2 x117 +4 x118 +8 x119 +16 x120 -1 x136 -2 x137 -4 x138 -8 x139 -16 x140 +10 x54 +1 x406 +2 x407 +4 x408 +8 x409 +16 x410  = 9 ;

+1 x411 +2 x412 +4 x413 +8 x414 +16 x415  >= 0 ;
+1 x121 +2 x122 +4 x123 +8 x124 +16 x125 -1 x91 -2 x92 -4 x93 -8 x94 -16 x95 +10 x55 +1 x411 +2 x412 +4 x413 +8 x414 +16 x415  = 9 ;

+1 x416 +2 x417 +4 x418 +8 x419 +16 x420  >= 0 ;
+1 x121 +2 x122 +4 x123 +8 x124 +16 x125 -1 x96 -2 x97 -4 x98 -8 x99 -16 x100 +10 x56 +1 x416 +2 x417 +4 x418 +8 x419 +16 x420  = 9 ;

+1 x421 +2 x422 +4 x423 +8 x424 +16 x425  >= 0 ;
+1 x121 +2 x122 +4 x123 +8 x124 +16 x125 -1 x101 -2 x102 -4 x103 -8 x104 -16 x105 +10 x57 +1 x421 +2 x422 +4 x423 +8 x424 +16 x425  = 9 ;

+1 x426 +2 x427 +4 x428 +8 x429 +16 x430  >= 0 ;
+1 x121 +2 x122 +4 x123 +8 x124 +16 x125 -1 x106 -2 x107 -4 x108 -8 x109 -16 x110 +10 x58 +1 x426 +2 x427 +4 x428 +8 x429 +16 x430  = 9 ;

+1 x431 +2 x432 +4 x433 +8 x434 +16 x435  >= 0 ;
+1 x121 +2 x122 +4 x123 +8 x124 +16 x125 -1 x111 -2 x112 -4 x113 -8 x114 -16 x115 +10 x59 +1 x431 +2 x432 +4 x433 +8 x434 +16 x435  = 9 ;

+1 x436 +2 x437 +4 x438 +8 x439 +16 x440  >= 0 ;
+1 x121 +2 x122 +4 x123 +8 x124 +16 x125 -1 x116 -2 x117 -4 x118 -8 x119 -16 x120 +10 x60 +1 x436 +2 x437 +4 x438 +8 x439 +16 x440  = 9 ;

+1 x441 +2 x442 +4 x443 +8 x444 +16 x445  >= 0 ;
+1 x121 +2 x122 +4 x123 +8 x124 +16 x125 -1 x126 -2 x127 -4 x128 -8 x129 -16 x130 +10 x61 +1 x441 +2 x442 +4 x443 +8 x444 +16 x445  = 9 ;

+1 x446 +2 x447 +4 x448 +8 x449 +16 x450  >= 0 ;
+1 x121 +2 x122 +4 x123 +8 x124 +16 x125 -1 x131 -2 x132 -4 x133 -8 x134 -16 x135 +10 x62 +1 x446 +2 x447 +4 x448 +8 x449 +16 x450  = 9 ;

+1 x451 +2 x452 +4 x453 +8 x454 +16 x455  >= 0 ;
+1 x121 +2 x122 +4 x123 +8 x124 +16 x125 -1 x136 -2 x137 -4 x138 -8 x139 -16 x140 +10 x63 +1 x451 +2 x452 +4 x453 +8 x454 +16 x455  = 9 ;

+1 x456 +2 x457 +4 x458 +8 x459 +16 x460  >= 0 ;
+1 x126 +2 x127 +4 x128 +8 x129 +16 x130 -1 x91 -2 x92 -4 x93 -8 x94 -16 x95 +10 x64 +1 x456 +2 x457 +4 x458 +8 x459 +16 x460  = 9 ;

+1 x461 +2 x462 +4 x463 +8 x464 +16 x465  >= 0 ;
+1 x126 +2 x127 +4 x128 +8 x129 +16 x130 -1 x96 -2 x97 -4 x98 -8 x99 -16 x100 +10 x65 +1 x461 +2 x462 +4 x463 +8 x464 +16 x465  = 9 ;

+1 x466 +2 x467 +4 x468 +8 x469 +16 x470  >= 0 ;
+1 x126 +2 x127 +4 x128 +8 x129 +16 x130 -1 x101 -2 x102 -4 x103 -8 x104 -16 x105 +10 x66 +1 x466 +2 x467 +4 x468 +8 x469 +16 x470  = 9 ;

+1 x471 +2 x472 +4 x473 +8 x474 +16 x475  >= 0 ;
+1 x126 +2 x127 +4 x128 +8 x129 +16 x130 -1 x106 -2 x107 -4 x108 -8 x109 -16 x110 +10 x67 +1 x471 +2 x472 +4 x473 +8 x474 +16 x475  = 9 ;

+1 x476 +2 x477 +4 x478 +8 x479 +16 x480  >= 0 ;
+1 x126 +2 x127 +4 x128 +8 x129 +16 x130 -1 x111 -2 x112 -4 x113 -8 x114 -16 x115 +10 x68 +1 x476 +2 x477 +4 x478 +8 x479 +16 x480  = 9 ;

+1 x481 +2 x482 +4 x483 +8 x484 +16 x485  >= 0 ;
+1 x126 +2 x127 +4 x128 +8 x129 +16 x130 -1 x116 -2 x117 -4 x118 -8 x119 -16 x120 +10 x69 +1 x481 +2 x482 +4 x483 +8 x484 +16 x485  = 9 ;

+1 x486 +2 x487 +4 x488 +8 x489 +16 x490  >= 0 ;
+1 x126 +2 x127 +4 x128 +8 x129 +16 x130 -1 x121 -2 x122 -4 x123 -8 x124 -16 x125 +10 x70 +1 x486 +2 x487 +4 x488 +8 x489 +16 x490  = 9 ;

+1 x491 +2 x492 +4 x493 +8 x494 +16 x495  >= 0 ;
+1 x126 +2 x127 +4 x128 +8 x129 +16 x130 -1 x131 -2 x132 -4 x133 -8 x134 -16 x135 +10 x71 +1 x491 +2 x492 +4 x493 +8 x494 +16 x495  = 9 ;

+1 x496 +2 x497 +4 x498 +8 x499 +16 x500  >= 0 ;
+1 x126 +2 x127 +4 x128 +8 x129 +16 x130 -1 x136 -2 x137 -4 x138 -8 x139 -16 x140 +10 x72 +1 x496 +2 x497 +4 x498 +8 x499 +16 x500  = 9 ;

+1 x501 +2 x502 +4 x503 +8 x504 +16 x505  >= 0 ;
+1 x131 +2 x132 +4 x133 +8 x134 +16 x135 -1 x91 -2 x92 -4 x93 -8 x94 -16 x95 +10 x73 +1 x501 +2 x502 +4 x503 +8 x504 +16 x505  = 9 ;

+1 x506 +2 x507 +4 x508 +8 x509 +16 x510  >= 0 ;
+1 x131 +2 x132 +4 x133 +8 x134 +16 x135 -1 x96 -2 x97 -4 x98 -8 x99 -16 x100 +10 x74 +1 x506 +2 x507 +4 x508 +8 x509 +16 x510  = 9 ;

+1 x511 +2 x512 +4 x513 +8 x514 +16 x515  >= 0 ;
+1 x131 +2 x132 +4 x133 +8 x134 +16 x135 -1 x101 -2 x102 -4 x103 -8 x104 -16 x105 +10 x75 +1 x511 +2 x512 +4 x513 +8 x514 +16 x515  = 9 ;

+1 x516 +2 x517 +4 x518 +8 x519 +16 x520  >= 0 ;
+1 x131 +2 x132 +4 x133 +8 x134 +16 x135 -1 x106 -2 x107 -4 x108 -8 x109 -16 x110 +10 x76 +1 x516 +2 x517 +4 x518 +8 x519 +16 x520  = 9 ;

+1 x521 +2 x522 +4 x523 +8 x524 +16 x525  >= 0 ;
+1 x131 +2 x132 +4 x133 +8 x134 +16 x135 -1 x111 -2 x112 -4 x113 -8 x114 -16 x115 +10 x77 +1 x521 +2 x522 +4 x523 +8 x524 +16 x525  = 9 ;

+1 x526 +2 x527 +4 x528 +8 x529 +16 x530  >= 0 ;
+1 x131 +2 x132 +4 x133 +8 x134 +16 x135 -1 x116 -2 x117 -4 x118 -8 x119 -16 x120 +10 x78 +1 x526 +2 x527 +4 x528 +8 x529 +16 x530  = 9 ;

+1 x531 +2 x532 +4 x533 +8 x534 +16 x535  >= 0 ;
+1 x131 +2 x132 +4 x133 +8 x134 +16 x135 -1 x121 -2 x122 -4 x123 -8 x124 -16 x125 +10 x79 +1 x531 +2 x532 +4 x533 +8 x534 +16 x535  = 9 ;

+1 x536 +2 x537 +4 x538 +8 x539 +16 x540  >= 0 ;
+1 x131 +2 x132 +4 x133 +8 x134 +16 x135 -1 x126 -2 x127 -4 x128 -8 x129 -16 x130 +10 x80 +1 x536 +2 x537 +4 x538 +8 x539 +16 x540  = 9 ;

+1 x541 +2 x542 +4 x543 +8 x544 +16 x545  >= 0 ;
+1 x131 +2 x132 +4 x133 +8 x134 +16 x135 -1 x136 -2 x137 -4 x138 -8 x139 -16 x140 +10 x81 +1 x541 +2 x542 +4 x543 +8 x544 +16 x545  = 9 ;